400
300 300
1 210 995
2 210 26
3 210 673
4 209 809
5 209 139
6 209 258
7 208 877
8 208 250
9 208 231
10 207 100
11 207 987
12 207 846
13 206 780
14 206 416
15 205 573
16 205 683
17 205 419
18 205 301
19 204 768
20 204 863
21 204 692
22 203 569
23 203 367
24 203 904
25 202 451
26 202 844
27 202 24
28 201 434
29 201 515
30 201 507
31 200 389
32 200 135
33 199 321
34 198 382
35 198 486
36 198 578
37 197 544
38 197 160
39 196 121
40 196 473
41 195 867
42 195 990
43 194 151
44 194 122
45 194 724
46 193 342
47 192 179
48 192 221
49 192 228
50 192 470
51 192 89
52 192 207
53 191 472
54 191 168
55 191 365
56 191 611
57 191 181
58 190 520
59 190 337
60 189 563
61 189 871
62 188 228
63 188 219
64 187 233
65 186 409
66 186 504
67 186 801
68 186 134
69 185 31
70 185 182
71 185 829
72 185 500
73 185 83
74 184 40
75 184 909
76 184 664
77 184 780
78 184 455
79 184 79
80 183 105
81 183 138
82 183 476
83 182 702
84 181 336
85 181 519
86 181 210
87 180 482
88 180 943
89 180 201
90 180 934
91 180 63
92 179 51
93 179 829
94 178 483
95 178 587
96 178 109
97 178 58
98 177 18
99 177 43
100 176 666
101 176 479
102 176 950
103 175 959
104 175 156
105 174 125
106 174 857
107 174 87
108 174 413
109 174 698
110 174 612
111 173 59
112 173 895
113 173 98
114 173 813
115 173 745
116 172 796
117 172 528
118 172 275
119 172 454
120 172 479
121 171 526
122 170 559
123 169 199
124 169 493
125 168 600
126 168 34
127 168 308
128 167 965
129 167 338
130 167 195
131 167 524
132 167 801
133 167 149
134 167 501
135 166 210
136 166 442
137 166 365
138 166 740
139 165 219
140 165 93
141 165 850
142 164 69
143 164 435
144 164 774
145 164 767
146 164 726
147 163 542
148 163 277
149 162 112
150 162 195
151 161 612
152 161 898
153 161 579
154 161 378
155 160 343
156 160 23
157 159 643
158 158 491
159 158 712
160 158 664
161 156 669
162 155 121
163 155 71
164 155 189
165 154 206
166 154 291
167 152 239
168 151 352
169 151 433
170 151 633
171 151 945
172 151 603
173 151 798
174 150 249
175 150 841
176 150 884
177 150 483
178 150 33
179 149 123
180 149 810
181 149 378
182 149 755
183 149 455
184 149 934
185 148 717
186 148 304
187 147 604
188 146 701
189 146 463
190 146 691
191 145 319
192 145 215
193 144 94
194 144 660
195 144 456
196 143 725
197 142 611
198 142 688
199 141 433
200 141 868
201 141 205
202 140 185
203 140 789
204 139 972
205 139 395
206 139 321
207 138 695
208 138 557
209 137 423
210 137 569
211 136 126
212 136 108
213 135 69
214 135 87
215 135 271
216 133 591
217 133 267
218 133 808
219 133 337
220 133 578
221 132 578
222 132 280
223 132 370
224 131 115
225 131 432
226 131 950
227 131 460
228 131 82
229 129 579
230 129 671
231 129 860
232 129 728
233 129 920
234 128 172
235 127 274
236 127 631
237 127 25
238 126 574
239 125 477
240 123 83
241 123 960
242 121 921
243 121 71
244 120 541
245 120 3
246 119 14
247 118 129
248 118 787
249 117 40
250 117 661
251 117 29
252 117 60
253 117 192
254 116 292
255 116 686
256 115 415
257 115 141
258 114 213
259 114 677
260 113 540
261 112 407
262 112 924
263 112 582
264 112 683
265 111 966
266 111 88
267 110 160
268 110 765
269 110 54
270 110 304
271 110 537
272 109 737
273 109 630
274 109 482
275 109 337
276 108 988
277 107 254
278 107 29
279 107 463
280 107 361
281 106 594
282 106 268
283 105 829
284 105 326
285 105 579
286 105 38
287 105 19
288 104 370
289 104 666
290 104 808
291 103 435
292 102 305
293 101 228
294 101 561
295 100 72
296 100 217
297 100 353
298 100 61
299 99 313
300 99 322
301 99 683
302 98 369
303 98 947
304 97 343
305 97 338
306 97 996
307 97 469
308 96 766
309 96 145
310 95 378
311 94 580
312 94 628
313 94 779
314 94 905
315 93 90
316 93 789
317 93 868
318 93 6
319 92 329
320 92 511
321 92 918
322 92 28
323 92 47
324 92 986
325 92 182
326 91 561
327 90 518
328 90 933
329 90 922
330 90 128
331 90 153
332 89 473
333 88 485
334 88 174
335 87 659
336 86 502
337 86 329
338 85 799
339 84 22
340 84 75
341 84 931
342 84 931
343 83 890
344 83 608
345 82 462
346 82 489
347 82 537
348 82 286
349 80 271
350 79 459
351 78 252
352 78 848
353 78 352
354 78 425
355 78 913
356 77 788
357 77 632
358 76 844
359 76 51
360 75 212
361 75 60
362 75 354
363 74 655
364 74 312
365 74 707
366 73 73
367 73 849
368 73 264
369 72 920
370 70 600
371 70 989
372 70 38
373 70 209
374 69 575
375 69 158
376 69 441
377 68 490
378 67 788
379 67 20
380 67 904
381 67 761
382 67 247
383 66 501
384 66 741
385 65 90
386 65 537
387 65 312
388 65 748
389 63 450
390 63 293
391 62 451
392 62 545
393 62 715
394 62 483
395 62 268
396 61 278
397 61 266
398 61 748
399 61 716
400 60 200
